11111111111111111111111
10001000001000000000001
10111011101011111111101
10000000100010000010001
11111111101111101110111
10001000100000100000101
11101010111110111011101
10001010100010100010001
10111010101010101110101
10000010001010100000101
10111111111010111111101
10001000001000001000101
11111011101111101011101
10000010001000101000101
10111110111011101110101
10000010000010000000101
11101111111110111111101
10100000101000101000001
10101010101011101011101
10101010001000101010101
10101011101110101010101
10001000100000100010001
11111111111111111111111
